# Solution for model Master problem
# Objective value = 2574
X_0_0 0
X_1_0 0
X_2_0 0
X_3_0 0
X_4_0 0
X_5_0 0
X_6_0 1
X_7_0 1
X_0_2 0
X_1_2 1
X_2_2 0
X_3_2 0
X_4_2 0
X_5_2 0
X_6_2 0
X_7_2 0
X_0_4 0
X_1_4 0
X_2_4 0
X_3_4 0
X_4_4 0
X_5_4 0
X_6_4 0
X_7_4 1
X_0_6 0
X_1_6 0
X_2_6 0
X_3_6 1
X_4_6 0
X_5_6 0
X_6_6 0
X_7_6 0
X_0_8 0
X_1_8 0
X_2_8 0
X_3_8 0
X_4_8 0
X_5_8 0
X_6_8 0
X_7_8 1
X_0_10 0
X_1_10 0
X_2_10 0
X_3_10 0
X_4_10 0
X_5_10 1
X_6_10 0
X_7_10 0
X_0_12 0
X_1_12 0
X_2_12 0
X_3_12 0
X_4_12 0
X_5_12 0
X_6_12 0
X_7_12 0
X_0_14 0
X_1_14 0
X_2_14 0
X_3_14 0
X_4_14 0
X_5_14 0
X_6_14 0
X_7_14 0
X_0_16 0
X_1_16 0
X_2_16 0
X_3_16 0
X_4_16 0
X_5_16 0
X_6_16 0
X_7_16 1
X_0_60 1
X_1_60 0
X_2_60 0
X_3_60 0
X_4_60 0
X_5_60 0
X_6_60 1
X_7_60 0
X_0_62 0
X_1_62 0
X_2_62 1
X_3_62 0
X_4_62 0
X_5_62 0
X_6_62 0
X_7_62 0
X_0_64 0
X_1_64 0
X_2_64 0
X_3_64 0
X_4_64 1
X_5_64 0
X_6_64 0
X_7_64 0
X_0_66 0
X_1_66 0
X_2_66 0
X_3_66 0
X_4_66 0
X_5_66 0
X_6_66 0
X_7_66 0
X_0_68 0
X_1_68 0
X_2_68 0
X_3_68 0
X_4_68 0
X_5_68 0
X_6_68 0
X_7_68 0
X_0_70 0
X_1_70 0
X_2_70 0
X_3_70 0
X_4_70 0
X_5_70 0
X_6_70 0
X_7_70 0
X_0_72 0
X_1_72 0
X_2_72 0
X_3_72 0
X_4_72 0
X_5_72 0
X_6_72 0
X_7_72 0
X_0_74 0
X_1_74 0
X_2_74 0
X_3_74 0
X_4_74 0
X_5_74 0
X_6_74 0
X_7_74 0
X_0_76 0
X_1_76 0
X_2_76 0
X_3_76 0
X_4_76 0
X_5_76 0
X_6_76 0
X_7_76 1
theta_0_0_0 0
theta_0_0_1 3
theta_0_0_2 0
theta_0_0_3 7
theta_0_0_4 0
theta_0_0_5 11
theta_0_1_0 61
theta_0_1_1 0
theta_0_1_2 63
theta_0_1_3 0
theta_0_1_4 65
theta_0_1_5 0
theta_1_0_0 0
theta_1_0_1 3
theta_1_0_2 0
theta_1_0_3 7
theta_1_0_4 0
theta_1_0_5 11
theta_1_1_0 61
theta_1_1_1 0
theta_1_1_2 63
theta_1_1_3 0
theta_1_1_4 65
theta_1_1_5 0
Z_0_0_0_1_0 18
ZP_0_0_0_1_0 18
Z_1_0_0_1_0 18
ZP_1_0_0_1_0 18
Z_0_1_0_1_0 18
ZP_0_1_0_1_0 18
Z_1_1_0_1_0 18
ZP_1_1_0_1_0 18
Z_0_0_1_1_0 366
ZP_0_0_1_1_0 -366
Z_1_0_1_1_0 366
ZP_1_0_1_1_0 -366
Z_0_1_1_1_0 366
ZP_0_1_1_1_0 -366
Z_1_1_1_1_0 366
ZP_1_1_1_1_0 -366
Z_0_0_0_0_1 18
ZP_0_0_0_0_1 -18
Z_1_0_0_0_1 18
ZP_1_0_0_0_1 -18
Z_0_1_0_0_1 18
ZP_0_1_0_0_1 -18
Z_1_1_0_0_1 18
ZP_1_1_0_0_1 -18
Z_0_0_1_0_1 366
ZP_0_0_1_0_1 366
Z_1_0_1_0_1 366
ZP_1_0_1_0_1 366
Z_0_1_1_0_1 366
ZP_0_1_1_0_1 366
Z_1_1_1_0_1 366
ZP_1_1_1_0_1 366
Z_0_0_0_2_1 18
ZP_0_0_0_2_1 -18
Z_1_0_0_2_1 18
ZP_1_0_0_2_1 -18
Z_0_1_0_2_1 18
ZP_0_1_0_2_1 -18
Z_1_1_0_2_1 18
ZP_1_1_0_2_1 -18
Z_0_0_1_2_1 378
ZP_0_0_1_2_1 378
Z_1_0_1_2_1 378
ZP_1_0_1_2_1 378
Z_0_1_1_2_1 378
ZP_0_1_1_2_1 378
Z_1_1_1_2_1 378
ZP_1_1_1_2_1 378
Z_0_0_0_1_2 18
ZP_0_0_0_1_2 18
Z_1_0_0_1_2 18
ZP_1_0_0_1_2 18
Z_0_1_0_1_2 18
ZP_0_1_0_1_2 18
Z_1_1_0_1_2 18
ZP_1_1_0_1_2 18
Z_0_0_1_1_2 378
ZP_0_0_1_1_2 -378
Z_1_0_1_1_2 378
ZP_1_0_1_1_2 -378
Z_0_1_1_1_2 378
ZP_0_1_1_1_2 -378
Z_1_1_1_1_2 378
ZP_1_1_1_1_2 -378
Z_0_0_0_3_2 42
ZP_0_0_0_3_2 42
Z_1_0_0_3_2 42
ZP_1_0_0_3_2 42
Z_0_1_0_3_2 42
ZP_0_1_0_3_2 42
Z_1_1_0_3_2 42
ZP_1_1_0_3_2 42
Z_0_0_1_3_2 378
ZP_0_0_1_3_2 -378
Z_1_0_1_3_2 378
ZP_1_0_1_3_2 -378
Z_0_1_1_3_2 378
ZP_0_1_1_3_2 -378
Z_1_1_1_3_2 378
ZP_1_1_1_3_2 -378
Z_0_0_0_2_3 42
ZP_0_0_0_2_3 -42
Z_1_0_0_2_3 42
ZP_1_0_0_2_3 -42
Z_0_1_0_2_3 42
ZP_0_1_0_2_3 -42
Z_1_1_0_2_3 42
ZP_1_1_0_2_3 -42
Z_0_0_1_2_3 378
ZP_0_0_1_2_3 378
Z_1_0_1_2_3 378
ZP_1_0_1_2_3 378
Z_0_1_1_2_3 378
ZP_0_1_1_2_3 378
Z_1_1_1_2_3 378
ZP_1_1_1_2_3 378
Z_0_0_0_4_3 42
ZP_0_0_0_4_3 -42
Z_1_0_0_4_3 42
ZP_1_0_0_4_3 -42
Z_0_1_0_4_3 42
ZP_0_1_0_4_3 -42
Z_1_1_0_4_3 42
ZP_1_1_0_4_3 -42
Z_0_0_1_4_3 390
ZP_0_0_1_4_3 390
Z_1_0_1_4_3 390
ZP_1_0_1_4_3 390
Z_0_1_1_4_3 390
ZP_0_1_1_4_3 390
Z_1_1_1_4_3 390
ZP_1_1_1_4_3 390
Z_0_0_0_3_4 42
ZP_0_0_0_3_4 42
Z_1_0_0_3_4 42
ZP_1_0_0_3_4 42
Z_0_1_0_3_4 42
ZP_0_1_0_3_4 42
Z_1_1_0_3_4 42
ZP_1_1_0_3_4 42
Z_0_0_1_3_4 390
ZP_0_0_1_3_4 -390
Z_1_0_1_3_4 390
ZP_1_0_1_3_4 -390
Z_0_1_1_3_4 390
ZP_0_1_1_3_4 -390
Z_1_1_1_3_4 390
ZP_1_1_1_3_4 -390
Z_0_0_0_5_4 66
ZP_0_0_0_5_4 66
Z_1_0_0_5_4 66
ZP_1_0_0_5_4 66
Z_0_1_0_5_4 66
ZP_0_1_0_5_4 66
Z_1_1_0_5_4 66
ZP_1_1_0_5_4 66
Z_0_0_1_5_4 390
ZP_0_0_1_5_4 -390
Z_1_0_1_5_4 390
ZP_1_0_1_5_4 -390
Z_0_1_1_5_4 390
ZP_0_1_1_5_4 -390
Z_1_1_1_5_4 390
ZP_1_1_1_5_4 -390
Z_0_0_0_4_5 66
ZP_0_0_0_4_5 -66
Z_1_0_0_4_5 66
ZP_1_0_0_4_5 -66
Z_0_1_0_4_5 66
ZP_0_1_0_4_5 -66
Z_1_1_0_4_5 66
ZP_1_1_0_4_5 -66
Z_0_0_1_4_5 390
ZP_0_0_1_4_5 390
Z_1_0_1_4_5 390
ZP_1_0_1_4_5 390
Z_0_1_1_4_5 390
ZP_0_1_1_4_5 390
Z_1_1_1_4_5 390
ZP_1_1_1_4_5 390
eta_0_0 0
eta_0_1 720
eta_0_2 0
eta_0_3 720
eta_0_4 0
eta_0_5 720
eta_1_0 720
eta_1_1 0
eta_1_2 720
eta_1_3 0
eta_1_4 720
eta_1_5 0
tmpp_var00 0
tmpp_var10 3
tmpp_var20 0
tmpp_var30 7
tmpp_var40 0
tmpp_var50 11
tmpp_var01 61
tmpp_var11 0
tmpp_var21 63
tmpp_var31 0
tmpp_var41 65
tmpp_var51 0
theta 2574
AA0 0
AA1 0
BB0 11
BB1 65
tau_0_0 0
tau_1_0 0
tau_0_2 1
tau_1_2 1
tau_0_4 1
tau_1_4 1
tau_0_6 1
tau_1_6 1
tau_0_8 1
tau_1_8 1
tau_0_10 1
tau_1_10 1
tau_0_12 0
tau_1_12 1
tau_0_14 0
tau_1_14 1
tau_0_16 1
tau_1_16 1
tau_0_60 0
tau_1_60 0
tau_0_62 1
tau_1_62 1
tau_0_64 1
tau_1_64 1
tau_0_66 0
tau_1_66 1
tau_0_68 0
tau_1_68 1
tau_0_70 0
tau_1_70 1
tau_0_72 0
tau_1_72 1
tau_0_74 0
tau_1_74 1
tau_0_76 1
tau_1_76 1
